c Maximum weighted clique instances generated from exactcolors.
c cutoff: 5052902.
c A clique of value > scalef (5052902) defines an improving stable sets for coloring.
p edge 30 0
n 1 5052902
n 2 5052902
n 3 5052902
n 4 5052902
n 5 5052902
n 6 5052902
n 7 5052902
n 8 5052902
n 9 5052902
n 10 5052902
n 11 5052902
n 12 5052902
n 13 5052902
n 14 5052902
n 15 5052902
n 16 5052902
n 17 5052902
n 18 5052901
n 19 5052902
n 20 5052901
n 21 5052902
n 22 5052902
n 23 5052902
n 24 5052902
n 25 5052901
n 26 5052902
n 27 5052902
n 28 5052901
n 29 5052901
n 30 5052901
